(set-logic HORN)
(declare-fun assign_172_22_5_abs0 (Int Int Int Int) Bool)
(declare-fun assert_163_21_5_abs0 (Int Int Int Int) Bool)
(declare-fun assert_148_20_12_abs0 (Int Int Int Int) Bool)
(declare-fun while_175_19_1_abs0 (Int Int Int Int) Bool)
(declare-fun assign_110_18_1_abs0 (Int Int Int Int) Bool)
(declare-fun assign_104_17_1_abs0 (Int Int Int Int) Bool)
(declare-fun assign_95_15_5_abs0 (Int Int Int Int) Bool)
(declare-fun assert_86_14_12_abs0 (Int Int Int Int) Bool)
(declare-fun while_98_13_1_abs0 (Int Int Int Int) Bool)
(declare-fun assign_39_12_1_abs0 (Int Int Int Int) Bool)
(declare-fun end_abs0 (Int Int Int Int) Bool)
(declare-fun start_abs0 (Int Int Int Int) Bool)
(assert (forall ((source (Array Int Int)) (l Int) (i Int) (vabs_f_f Int)) (start_abs0 vabs_f_f (select source vabs_f_f) l i)))
(assert (forall ((i Int) (l Int) (source (Array Int Int)) (vabs_0_f_f Int)) (=> (start_abs0 vabs_0_f_f (select source vabs_0_f_f) l i) (assign_39_12_1_abs0 vabs_0_f_f (select source vabs_0_f_f) l i))))
(assert (forall ((i Int) (l Int) (source (Array Int Int)) (vabs_0_f_f Int)) (=> (assign_39_12_1_abs0 vabs_0_f_f (select source vabs_0_f_f) l i) (while_98_13_1_abs0 vabs_0_f_f (select source vabs_0_f_f) l 0))))
(assert (forall ((source (Array Int Int)) (l Int) (i Int) (vabs_0_f_f Int)) (=> (and (while_98_13_1_abs0 i (select source i) l i) (while_98_13_1_abs0 vabs_0_f_f (select source vabs_0_f_f) l i) (not (= (select source i) 0))) (assert_86_14_12_abs0 vabs_0_f_f (select source vabs_0_f_f) l i))))
(assert (forall ((source (Array Int Int)) (l Int) (i Int) (vabs_0_f_f Int)) (=> (and (while_98_13_1_abs0 i (select source i) l i) (while_98_13_1_abs0 vabs_0_f_f (select source vabs_0_f_f) l i) (not (not (= (select source i) 0)))) (assign_104_17_1_abs0 vabs_0_f_f (select source vabs_0_f_f) l i))))
(assert (forall ((k Int) (i Int) (l Int) (source (Array Int Int))) (=> (and (assert_86_14_12_abs0 k (select source k) l i) (<= 0 k) (< k i)) (not (= (select source k) 0)))))
(assert (forall ((i Int) (l Int) (source (Array Int Int)) (vabs_0_f_f Int)) (=> (assert_86_14_12_abs0 vabs_0_f_f (select source vabs_0_f_f) l i) (assign_95_15_5_abs0 vabs_0_f_f (select source vabs_0_f_f) l i))))
(assert (forall ((i Int) (l Int) (source (Array Int Int)) (vabs_0_f_f Int)) (=> (assign_95_15_5_abs0 vabs_0_f_f (select source vabs_0_f_f) l i) (while_98_13_1_abs0 vabs_0_f_f (select source vabs_0_f_f) l (+ i 1)))))
(assert (forall ((i Int) (l Int) (source (Array Int Int)) (vabs_0_f_f Int)) (=> (assign_104_17_1_abs0 vabs_0_f_f (select source vabs_0_f_f) l i) (assign_110_18_1_abs0 vabs_0_f_f (select source vabs_0_f_f) i i))))
(assert (forall ((i Int) (l Int) (source (Array Int Int)) (vabs_0_f_f Int)) (=> (assign_110_18_1_abs0 vabs_0_f_f (select source vabs_0_f_f) l i) (while_175_19_1_abs0 vabs_0_f_f (select source vabs_0_f_f) l 0))))
(assert (forall ((source (Array Int Int)) (l Int) (i Int) (vabs_0_f_f Int)) (=> (and (while_175_19_1_abs0 vabs_0_f_f (select source vabs_0_f_f) l i) (< i l)) (assert_148_20_12_abs0 vabs_0_f_f (select source vabs_0_f_f) l i))))
(assert (forall ((source (Array Int Int)) (l Int) (i Int) (vabs_0_f_f Int)) (=> (and (while_175_19_1_abs0 vabs_0_f_f (select source vabs_0_f_f) l i) (not (< i l))) (end_abs0 vabs_0_f_f (select source vabs_0_f_f) l i))))
(assert (forall ((k Int) (i Int) (l Int) (source (Array Int Int))) (=> (and (assert_148_20_12_abs0 k (select source k) l i) (<= 0 k) (< k l)) (not (= (select source k) 0)))))
(assert (forall ((i Int) (l Int) (source (Array Int Int)) (vabs_0_f_f Int)) (=> (assert_148_20_12_abs0 vabs_0_f_f (select source vabs_0_f_f) l i) (assert_163_21_5_abs0 vabs_0_f_f (select source vabs_0_f_f) l i))))
(assert (forall ((i Int) (l Int) (source (Array Int Int))) (=> (assert_163_21_5_abs0 i (select source i) l i) (not (= (select source i) 0)))))
(assert (forall ((i Int) (l Int) (source (Array Int Int)) (vabs_0_f_f Int)) (=> (assert_163_21_5_abs0 vabs_0_f_f (select source vabs_0_f_f) l i) (assign_172_22_5_abs0 vabs_0_f_f (select source vabs_0_f_f) l i))))
(assert (forall ((i Int) (l Int) (source (Array Int Int)) (vabs_0_f_f Int)) (=> (assign_172_22_5_abs0 vabs_0_f_f (select source vabs_0_f_f) l i) (while_175_19_1_abs0 vabs_0_f_f (select source vabs_0_f_f) l (+ i 1)))))
(check-sat)